&CONTROL
    disk_io = 'minimum',
    prefix = 'H2O',
    calculation ='relax',
    outdir = './out',
    pseudo_dir = '.'
    tstress = .true.
    tprnfor = .true.
/

&SYSTEM
   ntyp             = 2
   nat              = 3
   ibrav            = 0
   ecutwfc=50,
   ecutrho=400,
   occupations = 'smearing',
   smearing = 'gauss',
   degauss = 0.02,

/

&ELECTRONS
    mixing_mode='plain',
    diagonalization='david',
    mixing_beta=0.2,
/

&IONS
        ion_dynamics = 'bfgs'
/

ATOMIC_SPECIES
O 15.999 O.pbe-n-kjpaw_psl.1.0.0.UPF
H 1.001	 H.pbe-rrkjus_psl.1.0.0.UPF

K_POINTS gamma

#CELL_PARAMETERS angstrom
#0.00000000000000 1.88989000000000 3.89884000000000
#1.50177000000000 0.00000000000000 3.89884000000000
#1.50177000000000 1.88989000000000 0.00000000000000
CELL_PARAMETERS angstrom
	10 0  0
	0  10 0
	0  0  10

ATOMIC_POSITIONS angstrom
O 6.707000 6.707000 6.708081   
H 6.150177 6.150177 7.309223
H 7.263823 7.263823 7.309223


#H 6.150177 6.150177 6.106939
#H 7.263823 7.263823 6.106939


