&CONTROL
    disk_io = 'minimum',
    prefix = 'O2',
    calculation ='relax',
    outdir = './out',
    pseudo_dir = '.'
    tstress = .true.
    tprnfor = .true.
/

&SYSTEM
   ntyp             = 1
   nat              = 2
   ibrav            = 0
   ecutwfc=50,
   ecutrho=400,
   occupations = 'smearing',
   smearing = 'gauss',
   degauss = 0.02,

/

&ELECTRONS
    mixing_mode='plain',
    diagonalization='david',
    mixing_beta=0.2,
/

&IONS
        ion_dynamics = 'bfgs'
/

ATOMIC_SPECIES
O 15.999 O.pbe-n-kjpaw_psl.1.0.0.UPF

K_POINTS gamma

#CELL_PARAMETERS angstrom
#0.00000000000000 1.88989000000000 3.89884000000000
#1.50177000000000 0.00000000000000 3.89884000000000
#1.50177000000000 1.88989000000000 0.00000000000000
CELL_PARAMETERS angstrom
	10 0  0
	0  10 0
	0  0  10

ATOMIC_POSITIONS angstrom
O 0 0 0
O 0 0 1.230473904 

#O 1.5017700000 1.8898900000 3.2836030480 
#O 1.5017700000 1.8898900000 4.5140769520 

