 &control
    disk_io = 'minimum',
    prefix = 'phosphorene',
    calculation ='scf',
    outdir = './out',
    pseudo_dir = '.'
    tstress = .true.
    tprnfor = .true.
 /

 &system
    ibrav=0,
    celldm(1)=8.69108431,
    nat=16, 
    ntyp=1,
    ecutwfc=25.0, 
    ecutrho=90.0,
    occupations = 'smearing',
    smearing = 'gauss',
    degauss = 0.02,
 /

 &electrons
    mixing_mode='plain',
    diagonalization='david',
    mixing_beta=0.2,
 /
 
 &ions
 /
 
 &cell
    press = 0,
 /

ATOMIC_SPECIES
 P 30.973762 P.pbe-n-kjpaw_psl.0.1.UPF

CELL_PARAMETERS (alat)
  2.022368426 -0.000009318 -0.001237037
  0.000002672  1.443115752 -0.000076303
 -0.011253702 -0.000938124  5.023078797

ATOMIC_POSITIONS (crystal)
P        0.000913480   0.482233341   0.006846463
P        0.179480721   0.482255774   0.098723041
P        0.501900064   0.982257550   0.098723709
P        0.678411735   0.982232334   0.006846788
P        0.000456740   0.482233341   0.006846463
P        0.089740361   0.482255774   0.098723041
P        0.250950032   0.982257550   0.098723709
P        0.339205868   0.982232334   0.006846788
P        0.000913480   0.241116671   0.006846463
P        0.179480721   0.241127887   0.098723041
P        0.501900064   0.491128775   0.098723709
P        0.678411735   0.491116167   0.006846788
P        0.000456740   0.241116671   0.006846463
P        0.089740361   0.241127887   0.098723041
P        0.250950032   0.491128775   0.098723709
P        0.339205868   0.491116167   0.006846788

K_POINTS automatic
 12 12 3 1 1 1



