 &control
    disk_io = 'minimum',
    prefix = 'phosphorene',
    calculation ='relax',
    outdir = './out',
    pseudo_dir = '.'
    tstress = .true.
    tprnfor = .true.
 /

 &system
    ibrav=0,
    celldm(1)=8.621622888,
    nat=18, 
    ntyp=2,
    ecutwfc=30.0, 
    ecutrho=100.0,
    occupations = 'smearing',
    smearing = 'gauss',
    degauss = 0.02,
 /

 &electrons
    mixing_mode='plain',
    diagonalization='david',
    mixing_beta=0.2,
 /
 
 &ions
    ion_dynamics = 'bfgs',
 /
 
 &cell
    press = 0,
 /

ATOMIC_SPECIES
 P 30.973762 P.pbe-n-kjpaw_psl.0.1.UPF
 O 15.999    O.pbe-n-kjpaw_psl.1.0.0.UPF

CELL_PARAMETERS (alat)
  2.022368426 -0.000009318 -0.001237037
  0.000002672  1.443115752 -0.000076303
 -0.011253702 -0.000938124  5.023078797

ATOMIC_POSITIONS (crystal)
P        0.000456740   0.241116671   0.006846463 
P        0.089740361   0.241127887   0.098723041
P        0.250950032   0.491128775   0.098723709
P        0.339205868   0.491116167   0.006846788
P        0.500456740   0.741116671   0.006846463
P        0.589740361   0.741127887   0.098723041
P        0.750950032   0.991128775   0.098723709
P        0.839205868   0.991116167   0.006846788
P        0.000456740   0.741116671   0.006846463
P        0.089740361   0.741127887   0.098723041
P        0.250950032   0.991128775   0.098723709
P        0.339205868   0.991116167   0.006846788
P        0.500456740   0.241116671   0.006846463
P        0.589740361   0.241127887   0.098723041
P        0.750950032   0.491128775   0.098723709
P        0.839205868   0.491116167   0.006846788
O	 0.500456740   0.741116671   0.144662332
O        0.839205868   0.491128778   0.144662332

K_POINTS automatic
 20 20 3 1 1 1



